<number of tasks>
50

<cycle time>
1000

<order strength>
0.603


<task times>
1 95
2 105
3 47
4 100
5 252
6 97
7 146
8 210
9 86
10 143
11 65
12 151
13 103
14 31
15 114
16 108
17 244
18 50
19 154
20 48
21 135
22 186
23 117
24 167
25 188
26 32
27 306
28 248
29 76
30 121
31 48
32 94
33 95
34 252
35 303
36 114
37 165
38 135
39 82
40 24
41 185
42 225
43 115
44 143
45 21
46 138
47 127
48 68
49 144
50 111

<precedence relations>
1,10
2,7
2,8
3,6
3,7
3,9
4,9
4,10
5,13
6,19
6,30
6,32
6,36
6,38
7,11
8,11
9,11
10,11
11,12
11,13
11,14
12,15
12,16
12,19
13,18
13,20
13,43
14,17
14,18
15,21
15,22
15,26
16,25
16,26
17,26
18,23
18,29
18,46
19,44
20,23
20,24
20,36
21,28
21,29
21,34
21,36
23,30
23,39
23,47
25,27
25,31
26,28
26,31
26,35
26,38
27,32
27,34
27,35
28,33
28,42
30,35
31,36
31,43
32,39
33,40
33,43
34,38
34,40
35,37
36,37
36,40
37,41
37,42
37,44
38,43
38,47
38,49
38,50
39,41
40,45
40,46
44,49
46,48
46,50

<end>
